0 10530 
1 10480 
2 10478 
3 10428 
4 10324 
5 10318 
6 10232 
7 10172 
8 9986 
9 9884 
10 9716 
11 9608 
12 9450 
13 9366 
14 9350 
15 9268 
16 9038 
17 9002 
18 8956 
19 8842 
20 8806 
21 8712 
22 8666 
23 8568 
24 8364 
25 8262 
26 8178 
27 8078 
28 7814 
29 7590 
30 7568 
31 7540 
32 7402 
33 7270 
34 7170 
35 6546 
36 6472 
37 6328 
38 6290 
39 6050 
40 5980 
41 5874 
42 5750 
43 5700 
44 5554 
45 5548 
46 5510 
47 5374 
48 5314 
49 5168 
50 5088 
51 5084 
52 5018 
53 5002 
54 4882 
55 4786 
56 4710 
57 4696 
58 4640 
59 4452 
60 4452 
61 4328 
62 4216 
63 4170 
64 4072 
65 3854 
66 3680 
67 3634 
68 3602 
69 3456 
70 3456 
71 3456 
72 3456 
73 3456 
74 3456 
75 3456 
76 3416 
77 3356 
78 3342 
79 3254 
80 3218 
81 3184 
82 2996 
83 2996 
84 2996 
85 2996 
86 2996 
87 2996 
88 2996 
89 2996 
90 2996 
91 2996 
92 2996 
93 2996 
94 2996 
95 2996 
96 2996 
97 2996 
98 2996 
99 2996 
100 2996 
101 2996 
102 2996 
103 2996 
104 2996 
105 2996 
106 2996 
107 2996 
108 2996 
109 2996 
110 2996 
111 2996 
112 2996 
113 2996 
114 2996 
115 2996 
116 2996 
117 2996 
118 2996 
119 2996 
120 2996 
121 2996 
122 2996 
123 2996 
124 2996 
125 2996 
126 2996 
127 2996 
128 2996 
129 2996 
130 2996 
131 2996 
132 2996 
133 2996 
134 2996 
135 2996 
136 2996 
137 2996 
138 2996 
139 2996 
140 2996 
141 2996 
142 2996 
143 2996 
144 2996 
145 2996 
146 2996 
147 2996 
148 2996 
149 2996 
150 2996 
151 2996 
152 2996 
153 2996 
154 2996 
155 2996 
156 2996 
157 2996 
158 2996 
159 2996 
160 2996 
161 2996 
162 2996 
163 2996 
164 2996 
165 2996 
166 2996 
167 2996 
168 2996 
169 2996 
170 2996 
171 2996 
172 2996 
173 2996 
174 2996 
175 2996 
176 2996 
177 2996 
178 2996 
179 2996 
180 2996 
181 2996 
182 2996 
183 2996 
184 2996 
185 2996 
186 2996 
187 2996 
188 2996 
189 2996 
190 2996 
191 2996 
192 2996 
193 2996 
194 2996 
195 2996 
196 2996 
197 2996 
198 2996 
199 2996 
200 2996 
201 2996 
202 2996 
203 2996 
204 2996 
205 2996 
206 2996 
207 2996 
208 2996 
209 2996 
210 2996 
211 2996 
212 2996 
213 2996 
214 2996 
215 2996 
216 2996 
217 2996 
218 2996 
219 2996 
220 2996 
221 2996 
222 2996 
223 2996 
224 2996 
225 2996 
226 2996 
227 2996 
228 2996 
229 2996 
230 2996 
231 2996 
232 2996 
233 2996 
234 2996 
235 2996 
236 2996 
237 2996 
238 2996 
239 2996 
240 2996 
241 2996 
242 2996 
243 2996 
244 2996 
245 2996 
246 2996 
247 2996 
248 2996 
249 2996 
250 2996 
251 2996 
252 2996 
253 2996 
254 2996 
255 2996 
256 2996 
257 2996 
258 2996 
259 2996 
260 2996 
261 2996 
262 2996 
263 2996 
264 2996 
265 2996 
266 2996 
267 2996 
268 2996 
269 2996 
270 2996 
271 2996 
272 2996 
273 2996 
274 2996 
275 2996 
276 2996 
277 2996 
278 2996 
279 2996 
280 2996 
281 2996 
282 2996 
283 2996 
284 2996 
285 2996 
286 2996 
287 2996 
288 2996 
289 2996 
290 2996 
291 2996 
292 2996 
293 2996 
294 2996 
295 2996 
296 2996 
297 2996 
298 2996 
299 2996 
300 2996 
301 2996 
302 2996 
303 2996 
304 2996 
305 2996 
306 2996 
307 2996 
308 2996 
309 2996 
310 2996 
311 2996 
312 2996 
313 2996 
314 2996 
315 2996 
316 2996 
317 2996 
318 2996 
319 2996 
320 2996 
321 2996 
322 2996 
323 2996 
324 2996 
325 2996 
326 2996 
327 2996 
328 2996 
329 2996 
330 2996 
331 2996 
332 2996 
333 2996 
334 2996 
335 2996 
336 2996 
337 2996 
338 2996 
339 2996 
340 2996 
341 2996 
342 2996 
343 2996 
344 2996 
345 2996 
346 2996 
347 2996 
348 2996 
349 2996 
350 2996 
351 2996 
352 2996 
353 2996 
354 2996 
355 2996 
356 2996 
357 2996 
358 2996 
359 2996 
360 2996 
361 2996 
362 2996 
363 2996 
364 2996 
365 2996 
366 2996 
367 2996 
368 2996 
369 2996 
370 2996 
371 2996 
372 2996 
373 2996 
374 2996 
375 2996 
376 2996 
377 2996 
378 2996 
379 2996 
380 2996 
381 2996 
382 2996 
383 2996 
384 2996 
385 2996 
386 2996 
387 2996 
388 2996 
389 2996 
390 2996 
391 2996 
392 2996 
393 2996 
394 2996 
395 2996 
396 2996 
397 2996 
398 2996 
399 2996 
400 2996 
401 2996 
402 2996 
403 2996 
404 2996 
405 2996 
406 2996 
407 2996 
408 2996 
409 2996 
410 2996 
411 2996 
412 2996 
413 2996 
414 2996 
415 2996 
416 2996 
417 2996 
418 2996 
419 2996 
420 2996 
421 2996 
422 2996 
423 2996 
424 2996 
425 2996 
426 2996 
427 2996 
428 2996 
429 2996 
430 2996 
431 2996 
432 2996 
433 2996 
434 2996 
435 2996 
436 2996 
437 2996 
438 2996 
439 2996 
440 2996 
441 2996 
442 2996 
443 2996 
444 2996 
445 2996 
446 2996 
447 2996 
448 2996 
449 2996 
450 2996 
451 2996 
452 2996 
453 2996 
454 2996 
455 2996 
456 2996 
457 2996 
458 2996 
459 2996 
460 2996 
461 2996 
462 2996 
463 2996 
464 2996 
465 2996 
466 2996 
467 2996 
468 2996 
469 2996 
470 2996 
471 2996 
472 2996 
473 2996 
474 2996 
475 2996 
476 2996 
477 2996 
478 2996 
479 2996 
480 2996 
481 2996 
482 2996 
483 2996 
484 2996 
485 2996 
486 2996 
487 2996 
488 2996 
489 2996 
490 2996 
491 2996 
492 2996 
493 2996 
494 2996 
495 2996 
496 2996 
497 2996 
498 2996 
499 2996 
500 2996 
501 2996 
502 2996 
503 2996 
504 2996 
505 2996 
506 2996 
507 2996 
508 2996 
509 2996 
510 2996 
511 2996 
512 2996 
513 2996 
514 2996 
515 2996 
516 2996 
517 2996 
518 2996 
519 2996 
520 2996 
521 2996 
522 2996 
523 2996 
524 2996 
525 2996 
526 2996 
527 2996 
528 2996 
529 2996 
530 2996 
531 2996 
532 2996 
533 2996 
534 2996 
535 2996 
536 2996 
537 2996 
538 2996 
539 2996 
540 2996 
541 2996 
542 2996 
543 2996 
544 2996 
545 2996 
546 2996 
547 2996 
548 2996 
549 2996 
550 2996 
551 2996 
552 2996 
553 2996 
554 2996 
555 2996 
556 2996 
557 2996 
558 2996 
559 2996 
560 2996 
561 2996 
562 2996 
563 2996 
564 2996 
565 2996 
566 2996 
567 2996 
568 2996 
569 2996 
570 2996 
571 2996 
572 2996 
573 2996 
574 2996 
575 2996 
576 2996 
577 2996 
578 2996 
579 2996 
580 2996 
581 2996 
582 2996 
583 2996 
584 2996 
585 2996 
586 2996 
587 2996 
588 2996 
589 2996 
590 2996 
591 2996 
592 2996 
593 2996 
594 2996 
595 2996 
596 2996 
597 2996 
598 2996 
599 2996 
600 2996 
601 2996 
602 2996 
603 2996 
604 2996 
605 2996 
606 2996 
607 2996 
608 2996 
609 2996 
610 2996 
611 2996 
612 2996 
613 2996 
614 2996 
615 2996 
616 2996 
617 2996 
618 2996 
619 2996 
620 2996 
621 2996 
622 2996 
623 2996 
624 2996 
625 2996 
626 2996 
627 2996 
628 2996 
629 2996 
630 2996 
631 2996 
632 2996 
633 2996 
634 2996 
635 2996 
636 2996 
637 2996 
638 2996 
639 2996 
640 2996 
641 2996 
642 2996 
643 2996 
644 2996 
645 2996 
646 2996 
647 2996 
648 2996 
649 2996 
650 2996 
651 2996 
652 2996 
653 2996 
654 2996 
655 2996 
656 2996 
657 2996 
658 2996 
659 2996 
660 2996 
661 2996 
662 2996 
663 2996 
664 2996 
665 2996 
666 2996 
667 2996 
668 2996 
669 2996 
670 2996 
671 2996 
672 2996 
673 2996 
674 2996 
675 2996 
676 2996 
677 2996 
678 2996 
679 2996 
680 2996 
681 2996 
682 2996 
683 2996 
684 2996 
685 2996 
686 2996 
687 2996 
688 2996 
689 2996 
690 2996 
691 2996 
692 2996 
693 2996 
694 2996 
695 2996 
696 2996 
697 2996 
698 2996 
699 2996 
700 2996 
701 2996 
702 2996 
703 2996 
704 2996 
705 2996 
706 2996 
707 2996 
708 2996 
709 2996 
710 2996 
711 2996 
712 2996 
713 2996 
714 2996 
715 2996 
716 2996 
717 2996 
718 2996 
719 2996 
720 2996 
721 2996 
722 2996 
723 2996 
724 2996 
725 2996 
726 2996 
727 2996 
728 2996 
729 2996 
730 2996 
731 2996 
732 2996 
733 2996 
734 2996 
735 2996 
736 2996 
737 2996 
738 2996 
739 2996 
740 2996 
741 2996 
742 2996 
743 2996 
744 2996 
745 2996 
746 2996 
747 2996 
748 2996 
749 2996 
750 2996 
751 2996 
752 2996 
753 2996 
754 2996 
755 2996 
756 2996 
757 2996 
758 2996 
759 2996 
760 2996 
761 2996 
762 2996 
763 2996 
764 2996 
765 2996 
766 2996 
767 2996 
768 2996 
769 2996 
770 2996 
771 2996 
772 2996 
773 2996 
774 2996 
775 2996 
776 2996 
777 2996 
778 2996 
779 2996 
780 2996 
781 2996 
782 2996 
783 2996 
784 2996 
785 2996 
786 2996 
787 2996 
788 2996 
789 2996 
790 2996 
791 2996 
792 2996 
793 2996 
794 2996 
795 2996 
796 2996 
797 2996 
798 2996 
799 2996 
800 2996 
801 2996 
802 2996 
803 2996 
804 2996 
805 2996 
806 2996 
807 2996 
808 2996 
809 2996 
810 2996 
811 2996 
812 2996 
813 2996 
814 2996 
815 2996 
816 2996 
817 2996 
818 2996 
819 2996 
820 2996 
821 2996 
822 2996 
823 2996 
824 2996 
825 2996 
826 2996 
827 2996 
828 2996 
829 2996 
830 2996 
831 2996 
832 2996 
833 2996 
834 2996 
835 2996 
836 2996 
837 2996 
838 2996 
839 2996 
840 2996 
841 2996 
842 2996 
843 2996 
844 2996 
845 2996 
846 2996 
847 2996 
848 2996 
849 2996 
850 2996 
851 2996 
852 2996 
853 2996 
854 2996 
855 2996 
856 2996 
857 2996 
858 2996 
859 2996 
860 2996 
861 2996 
862 2996 
863 2996 
864 2996 
865 2996 
866 2996 
867 2996 
868 2996 
869 2996 
870 2996 
871 2996 
872 2996 
873 2996 
874 2996 
875 2996 
876 2996 
877 2996 
878 2996 
879 2996 
880 2996 
881 2996 
882 2996 
883 2996 
884 2996 
885 2996 
886 2996 
887 2996 
888 2996 
889 2996 
890 2996 
891 2996 
892 2996 
893 2996 
894 2996 
895 2996 
896 2996 
897 2996 
898 2996 
899 2996 
900 2996 
901 2996 
902 2996 
903 2996 
904 2996 
905 2996 
906 2996 
907 2996 
908 2996 
909 2996 
910 2996 
911 2996 
912 2996 
913 2996 
914 2996 
915 2996 
916 2996 
917 2996 
918 2996 
919 2996 
920 2996 
921 2996 
922 2996 
923 2996 
924 2996 
925 2996 
926 2996 
927 2996 
928 2996 
929 2996 
930 2996 
931 2996 
932 2996 
933 2996 
934 2996 
935 2996 
936 2996 
937 2996 
938 2996 
939 2996 
940 2996 
941 2996 
942 2996 
943 2996 
944 2996 
945 2996 
946 2996 
947 2996 
948 2996 
949 2996 
950 2996 
951 2996 
952 2996 
953 2996 
954 2996 
955 2996 
956 2996 
957 2996 
958 2996 
959 2996 
960 2996 
961 2996 
962 2996 
963 2996 
964 2996 
965 2996 
966 2996 
967 2996 
968 2996 
969 2996 
970 2996 
971 2996 
972 2996 
973 2996 
974 2996 
975 2996 
976 2996 
977 2996 
978 2996 
979 2996 
980 2996 
981 2996 
982 2996 
983 2996 
984 2996 
985 2996 
986 2996 
987 2996 
988 2996 
989 2996 
990 2996 
991 2996 
992 2996 
993 2996 
994 2996 
995 2996 
996 2996 
997 2996 
998 2996 
999 2996 
1000 2996 
1001 2996 
1002 2996 
1003 2996 
1004 2996 
1005 2996 
1006 2996 
1007 2996 
1008 2996 
1009 2996 
1010 2996 
1011 2996 
1012 2996 
1013 2996 
1014 2996 
1015 2996 
1016 2996 
1017 2996 
1018 2996 
1019 2996 
1020 2996 
1021 2996 
1022 2996 
1023 2996 
1024 2996 
1025 2996 
1026 2996 
1027 2996 
1028 2996 
1029 2996 
1030 2996 
1031 2996 
1032 2996 
1033 2996 
1034 2996 
1035 2996 
1036 2996 
1037 2996 
1038 2996 
1039 2996 
1040 2996 
1041 2996 
1042 2996 
1043 2996 
1044 2996 
1045 2996 
1046 2996 
1047 2996 
1048 2996 
1049 2996 
1050 2996 
1051 2996 
1052 2996 
1053 2996 
1054 2996 
1055 2996 
1056 2996 
1057 2996 
1058 2996 
1059 2996 
1060 2996 
1061 2996 
1062 2996 
1063 2996 
1064 2996 
1065 2996 
1066 2996 
1067 2996 
1068 2996 
1069 2996 
1070 2996 
1071 2996 
1072 2996 
1073 2996 
1074 2996 
1075 2996 
1076 2996 
1077 2996 
1078 2996 
1079 2996 
1080 2996 
1081 2996 
1082 2996 
1083 2996 
1084 2996 
1085 2996 
1086 2996 
1087 2996 
1088 2996 
1089 2996 
1090 2996 
1091 2996 
1092 2996 
1093 2996 
1094 2996 
1095 2996 
1096 2996 
1097 2996 
1098 2996 
1099 2996 
1100 2996 
1101 2996 
1102 2996 
1103 2996 
1104 2996 
1105 2996 
1106 2996 
1107 2996 
1108 2996 
1109 2996 
1110 2996 
1111 2996 
1112 2996 
1113 2996 
1114 2996 
1115 2996 
1116 2996 
1117 2996 
1118 2996 
1119 2996 
1120 2996 
1121 2996 
1122 2996 
1123 2996 
1124 2996 
1125 2996 
1126 2996 
1127 2996 
1128 2996 
1129 2996 
1130 2996 
1131 2996 
1132 2996 
1133 2996 
1134 2996 
1135 2996 
1136 2996 
1137 2996 
1138 2996 
1139 2996 
1140 2996 
1141 2996 
1142 2996 
1143 2996 
1144 2996 
1145 2996 
1146 2996 
1147 2996 
1148 2996 
1149 2996 
1150 2996 
1151 2996 
1152 2996 
1153 2996 
1154 2996 
1155 2996 
1156 2996 
1157 2996 
1158 2996 
1159 2996 
1160 2996 
1161 2996 
1162 2996 
1163 2996 
1164 2996 
1165 2996 
1166 2996 
1167 2996 
1168 2996 
1169 2996 
1170 2996 
1171 2996 
1172 2996 
1173 2996 
1174 2996 
1175 2996 
1176 2996 
1177 2996 
1178 2996 
1179 2996 
1180 2996 
1181 2996 
1182 2996 
1183 2996 
1184 2996 
1185 2996 
1186 2996 
1187 2996 
1188 2996 
1189 2996 
1190 2996 
1191 2996 
1192 2996 
1193 2996 
1194 2996 
1195 2996 
1196 2996 
1197 2996 
1198 2996 
1199 2996 
1200 2996 
1201 2996 
1202 2996 
1203 2996 
1204 2996 
1205 2996 
1206 2996 
1207 2996 
1208 2996 
1209 2996 
1210 2996 
1211 2996 
1212 2996 
1213 2996 
1214 2996 
1215 2996 
1216 2996 
1217 2996 
1218 2996 
1219 2996 
1220 2996 
1221 2996 
1222 2996 
1223 2996 
1224 2996 
1225 2996 
1226 2996 
1227 2996 
1228 2996 
1229 2996 
1230 2996 
1231 2996 
1232 2996 
1233 2996 
1234 2996 
1235 2996 
1236 2996 
1237 2996 
1238 2996 
1239 2996 
1240 2996 
1241 2996 
1242 2996 
1243 2996 
1244 2996 
1245 2996 
1246 2996 
1247 2996 
1248 2996 
1249 2996 
1250 2996 
1251 2996 
1252 2996 
1253 2996 
1254 2996 
1255 2996 
1256 2996 
1257 2996 
1258 2996 
1259 2996 
1260 2996 
1261 2996 
1262 2996 
1263 2996 
1264 2996 
1265 2996 
1266 2996 
1267 2996 
1268 2996 
1269 2996 
1270 2996 
1271 2996 
1272 2996 
1273 2996 
1274 2996 
1275 2996 
1276 2996 
1277 2996 
1278 2996 
1279 2996 
1280 2996 
1281 2996 
1282 2996 
1283 2996 
1284 2996 
1285 2996 
1286 2996 
1287 2996 
1288 2996 
1289 2996 
1290 2996 
1291 2996 
1292 2996 
1293 2996 
1294 2996 
1295 2996 
1296 2996 
1297 2996 
1298 2996 
1299 2996 
1300 2996 
1301 2996 
1302 2996 
1303 2996 
1304 2996 
1305 2996 
1306 2996 
1307 2996 
1308 2996 
1309 2996 
1310 2996 
1311 2996 
1312 2996 
1313 2996 
1314 2996 
1315 2996 
1316 2996 
1317 2996 
1318 2996 
1319 2996 
1320 2996 
1321 2996 
1322 2996 
1323 2996 
1324 2996 
1325 2996 
1326 2996 
1327 2996 
1328 2996 
1329 2996 
1330 2996 
1331 2996 
1332 2996 
1333 2996 
1334 2996 
1335 2996 
1336 2996 
1337 2996 
1338 2996 
1339 2996 
1340 2996 
1341 2996 
1342 2996 
1343 2996 
1344 2996 
1345 2996 
1346 2996 
1347 2996 
1348 2996 
1349 2996 
1350 2996 
1351 2996 
1352 2996 
1353 2996 
1354 2996 
1355 2996 
1356 2996 
1357 2996 
1358 2996 
1359 2996 
1360 2996 
1361 2996 
1362 2996 
1363 2996 
1364 2996 
1365 2996 
1366 2996 
1367 2996 
1368 2996 
1369 2996 
1370 2996 
1371 2996 
1372 2996 
1373 2996 
1374 2996 
1375 2996 
1376 2996 
1377 2996 
1378 2996 
1379 2996 
1380 2996 
1381 2996 
1382 2996 
1383 2996 
1384 2996 
1385 2996 
1386 2996 
1387 2996 
1388 2996 
1389 2996 
1390 2996 
1391 2996 
1392 2996 
1393 2996 
1394 2996 
1395 2996 
1396 2996 
1397 2996 
1398 2996 
1399 2996 
1400 2996 
1401 2996 
1402 2996 
1403 2996 
1404 2996 
1405 2996 
1406 2996 
1407 2996 
1408 2996 
1409 2996 
1410 2996 
1411 2996 
1412 2996 
1413 2996 
1414 2996 
1415 2996 
1416 2996 
1417 2996 
1418 2996 
1419 2996 
1420 2996 
1421 2996 
1422 2996 
1423 2996 
1424 2996 
1425 2996 
1426 2996 
1427 2996 
1428 2996 
1429 2996 
1430 2996 
1431 2996 
1432 2996 
1433 2996 
1434 2996 
1435 2996 
1436 2996 
1437 2996 
1438 2996 
1439 2996 
1440 2996 
1441 2996 
1442 2996 
1443 2996 
1444 2996 
1445 2996 
1446 2996 
1447 2996 
1448 2996 
1449 2996 
1450 2996 
1451 2996 
1452 2996 
1453 2996 
1454 2996 
1455 2996 
1456 2996 
1457 2996 
1458 2996 
1459 2996 
1460 2996 
1461 2996 
1462 2996 
1463 2996 
1464 2996 
1465 2996 
1466 2996 
1467 2996 
1468 2996 
1469 2996 
1470 2996 
1471 2996 
1472 2996 
1473 2996 
1474 2996 
1475 2996 
1476 2996 
1477 2996 
1478 2996 
1479 2996 
1480 2996 
1481 2996 
1482 2996 
1483 2996 
1484 2996 
1485 2996 
1486 2996 
1487 2996 
1488 2996 
1489 2996 
1490 2996 
1491 2996 
1492 2996 
1493 2996 
1494 2996 
1495 2996 
1496 2996 
1497 2996 
1498 2996 
1499 2996 
1500 2996 
1501 2996 
1502 2996 
1503 2996 
1504 2996 
1505 2996 
1506 2996 
1507 2996 
1508 2996 
1509 2996 
1510 2996 
1511 2996 
1512 2996 
1513 2996 
1514 2996 
1515 2996 
1516 2996 
1517 2996 
1518 2996 
1519 2996 
1520 2996 
1521 2996 
1522 2996 
1523 2996 
1524 2996 
1525 2996 
1526 2996 
1527 2996 
1528 2996 
1529 2996 
1530 2996 
1531 2996 
1532 2996 
1533 2996 
1534 2996 
1535 2996 
1536 2996 
1537 2996 
1538 2996 
1539 2996 
1540 2996 
1541 2996 
1542 2996 
1543 2996 
1544 2996 
1545 2996 
1546 2996 
1547 2996 
1548 2996 
1549 2996 
1550 2996 
1551 2996 
1552 2996 
1553 2996 
1554 2996 
1555 2996 
1556 2996 
1557 2996 
1558 2996 
1559 2996 
1560 2996 
1561 2996 
1562 2996 
1563 2996 
1564 2996 
1565 2996 
1566 2996 
1567 2996 
1568 2996 
1569 2996 
1570 2996 
1571 2996 
1572 2996 
1573 2996 
1574 2996 
1575 2996 
1576 2996 
1577 2996 
1578 2996 
1579 2996 
1580 2996 
1581 2996 
1582 2996 
1583 2996 
1584 2996 
1585 2996 
1586 2996 
1587 2996 
1588 2996 
1589 2996 
1590 2996 
1591 2996 
1592 2996 
1593 2996 
1594 2996 
1595 2996 
1596 2996 
1597 2996 
1598 2996 
1599 2996 
1600 2996 
1601 2996 
1602 2996 
1603 2996 
1604 2996 
1605 2996 
1606 2996 
1607 2996 
1608 2996 
1609 2996 
1610 2996 
1611 2996 
1612 2996 
1613 2996 
1614 2996 
1615 2996 
1616 2996 
1617 2996 
1618 2996 
1619 2996 
1620 2996 
1621 2996 
1622 2996 
1623 2996 
1624 2996 
1625 2996 
1626 2996 
1627 2996 
1628 2996 
1629 2996 
1630 2996 
1631 2996 
1632 2996 
1633 2996 
1634 2996 
1635 2996 
1636 2996 
1637 2996 
1638 2996 
1639 2996 
1640 2996 
1641 2996 
1642 2996 
1643 2996 
1644 2996 
1645 2996 
1646 2996 
1647 2996 
1648 2996 
1649 2996 
1650 2996 
1651 2996 
1652 2996 
1653 2996 
1654 2996 
1655 2996 
1656 2996 
1657 2996 
1658 2996 
1659 2996 
1660 2996 
1661 2996 
1662 2996 
1663 2996 
1664 2996 
1665 2996 
1666 2996 
1667 2996 
1668 2996 
1669 2996 
1670 2996 
1671 2996 
1672 2996 
1673 2996 
1674 2996 
1675 2996 
1676 2996 
1677 2996 
1678 2996 
1679 2996 
1680 2996 
1681 2996 
1682 2996 
1683 2996 
1684 2996 
1685 2996 
1686 2996 
1687 2996 
1688 2996 
1689 2996 
1690 2996 
1691 2996 
1692 2996 
1693 2996 
1694 2996 
1695 2996 
1696 2996 
1697 2996 
1698 2996 
1699 2996 
1700 2996 
1701 2996 
1702 2996 
1703 2996 
1704 2996 
1705 2996 
1706 2996 
1707 2996 
1708 2996 
1709 2996 
1710 2996 
1711 2996 
1712 2996 
1713 2996 
1714 2996 
1715 2996 
1716 2996 
1717 2996 
1718 2996 
1719 2996 
1720 2996 
1721 2996 
1722 2996 
1723 2996 
1724 2996 
1725 2996 
1726 2996 
1727 2996 
1728 2996 
1729 2996 
1730 2996 
1731 2996 
1732 2996 
1733 2996 
1734 2996 
1735 2996 
1736 2996 
1737 2996 
1738 2996 
1739 2996 
1740 2996 
1741 2996 
1742 2996 
1743 2996 
1744 2996 
1745 2996 
1746 2996 
1747 2996 
1748 2996 
1749 2996 
1750 2996 
1751 2996 
1752 2996 
1753 2996 
1754 2996 
1755 2996 
1756 2996 
1757 2996 
1758 2996 
1759 2996 
1760 2996 
1761 2996 
1762 2996 
1763 2996 
1764 2996 
1765 2996 
1766 2996 
1767 2996 
1768 2996 
1769 2996 
1770 2996 
1771 2996 
1772 2996 
1773 2996 
1774 2996 
1775 2996 
1776 2996 
1777 2996 
1778 2996 
1779 2996 
1780 2996 
1781 2996 
1782 2996 
1783 2996 
1784 2996 
1785 2996 
1786 2996 
1787 2996 
1788 2996 
1789 2996 
1790 2996 
1791 2996 
1792 2996 
1793 2996 
1794 2996 
1795 2996 
1796 2996 
1797 2996 
1798 2996 
1799 2996 
1800 2996 
1801 2996 
1802 2996 
1803 2996 
1804 2996 
1805 2996 
1806 2996 
1807 2996 
1808 2996 
1809 2996 
1810 2996 
1811 2996 
1812 2996 
1813 2996 
1814 2996 
1815 2996 
1816 2996 
1817 2996 
1818 2996 
1819 2996 
1820 2996 
1821 2996 
1822 2996 
1823 2996 
1824 2996 
1825 2996 
1826 2996 
1827 2996 
1828 2996 
1829 2996 
1830 2996 
1831 2996 
1832 2996 
1833 2996 
1834 2996 
1835 2996 
1836 2996 
1837 2996 
1838 2996 
1839 2996 
1840 2996 
1841 2996 
1842 2996 
1843 2996 
1844 2996 
1845 2996 
1846 2996 
1847 2996 
1848 2996 
1849 2996 
1850 2996 
1851 2996 
1852 2996 
1853 2996 
1854 2996 
1855 2996 
1856 2996 
1857 2996 
1858 2996 
1859 2996 
1860 2996 
1861 2996 
1862 2996 
1863 2996 
1864 2996 
1865 2996 
1866 2996 
1867 2996 
1868 2996 
1869 2996 
1870 2996 
1871 2996 
1872 2996 
1873 2996 
1874 2996 
1875 2996 
1876 2996 
1877 2996 
1878 2996 
1879 2996 
1880 2996 
1881 2996 
1882 2996 
1883 2996 
1884 2996 
1885 2996 
1886 2996 
1887 2996 
1888 2996 
1889 2996 
1890 2996 
1891 2996 
1892 2996 
1893 2996 
1894 2996 
1895 2996 
1896 2996 
1897 2996 
1898 2996 
1899 2996 
1900 2996 
1901 2996 
1902 2996 
1903 2996 
1904 2996 
1905 2996 
1906 2996 
1907 2996 
1908 2996 
1909 2996 
1910 2996 
1911 2996 
1912 2996 
1913 2996 
1914 2996 
1915 2996 
1916 2996 
1917 2996 
1918 2996 
1919 2996 
1920 2996 
1921 2996 
1922 2996 
1923 2996 
1924 2996 
1925 2996 
1926 2996 
1927 2996 
1928 2996 
1929 2996 
1930 2996 
1931 2996 
1932 2996 
1933 2996 
1934 2996 
1935 2996 
1936 2996 
1937 2996 
1938 2996 
1939 2996 
1940 2996 
1941 2996 
1942 2996 
1943 2996 
1944 2996 
1945 2996 
1946 2996 
1947 2996 
1948 2996 
1949 2996 
1950 2996 
1951 2996 
1952 2996 
1953 2996 
1954 2996 
1955 2996 
1956 2996 
1957 2996 
1958 2996 
1959 2996 
1960 2996 
1961 2996 
1962 2996 
1963 2996 
1964 2996 
1965 2996 
1966 2996 
1967 2996 
1968 2996 
1969 2996 
1970 2996 
1971 2996 
1972 2996 
1973 2996 
1974 2996 
1975 2996 
1976 2996 
1977 2996 
1978 2996 
1979 2996 
1980 2996 
1981 2996 
1982 2996 
1983 2996 
1984 2996 
1985 2996 
1986 2996 
1987 2996 
1988 2996 
1989 2996 
1990 2996 
1991 2996 
1992 2996 
1993 2996 
1994 2996 
1995 2996 
1996 2996 
1997 2996 
1998 2996 
1999 2996 
2000 2996 
2001 2996 
2002 2996 
2003 2996 
2004 2996 
2005 2996 
2006 2996 
2007 2996 
2008 2996 
2009 2996 
2010 2996 
2011 2996 
2012 2996 
2013 2996 
2014 2996 
2015 2996 
2016 2996 
2017 2996 
2018 2996 
2019 2996 
2020 2996 
2021 2996 
2022 2996 
2023 2996 
2024 2996 
2025 2996 
2026 2996 
2027 2996 
2028 2996 
2029 2996 
2030 2996 
2031 2996 
2032 2996 
2033 2996 
2034 2996 
2035 2996 
2036 2996 
2037 2996 
2038 2996 
2039 2996 
2040 2996 
2041 2996 
2042 2996 
2043 2996 
2044 2996 
2045 2996 
2046 2996 
2047 2996 
2048 2996 
2049 2996 
2050 2996 
2051 2996 
2052 2996 
2053 2996 
2054 2996 
2055 2996 
2056 2996 
2057 2996 
2058 2996 
2059 2996 
2060 2996 
2061 2996 
2062 2996 
2063 2996 
2064 2996 
2065 2996 
2066 2996 
2067 2996 
2068 2996 
2069 2996 
2070 2996 
2071 2996 
2072 2996 
2073 2996 
2074 2996 
2075 2996 
2076 2996 
2077 2996 
2078 2996 
2079 2996 
2080 2996 
2081 2996 
2082 2996 

